NAME : D201-05k
COMMENT : Golden et al., 1997                     
TYPE : DCVRP               
DIMENSION :    201
EDGE_WEIGHT_TYPE : EUC_2D
CAPACITY :    900
DISTANCE :   1800
SERVICE_TIME :      0
VEHICLES :      5
NODE_COORD_TYPE : TWOD_COORDS
NODE_COORD_SECTION
    1   30.0000    0.0000
    2   28.5317    9.2705
    3   24.2705   17.6336
    4   17.6336   24.2705
    5    9.2705   28.5317
    6    0.0000   30.0000
    7   -9.2705   28.5317
    8  -17.6336   24.2705
    9  -24.2705   17.6336
   10  -28.5317    9.2705
   11  -30.0000    0.0000
   12  -28.5317   -9.2705
   13  -24.2705  -17.6336
   14  -17.6336  -24.2705
   15   -9.2705  -28.5317
   16    0.0000  -30.0000
   17    9.2705  -28.5317
   18   17.6336  -24.2705
   19   24.2705  -17.6336
   20   28.5317   -9.2705
   21   60.0000    0.0000
   22   57.0634   18.5410
   23   48.5410   35.2671
   24   35.2671   48.5410
   25   18.5410   57.0634
   26    0.0000   60.0000
   27  -18.5410   57.0634
   28  -35.2671   48.5410
   29  -48.5410   35.2671
   30  -57.0634   18.5410
   31  -60.0000    0.0000
   32  -57.0634  -18.5410
   33  -48.5410  -35.2671
   34  -35.2671  -48.5410
   35  -18.5410  -57.0634
   36    0.0000  -60.0000
   37   18.5410  -57.0634
   38   35.2671  -48.5410
   39   48.5410  -35.2671
   40   57.0634  -18.5410
   41   90.0000    0.0000
   42   85.5951   27.8115
   43   72.8115   52.9007
   44   52.9007   72.8115
   45   27.8115   85.5951
   46    0.0000   90.0000
   47  -27.8115   85.5951
   48  -52.9007   72.8115
   49  -72.8115   52.9007
   50  -85.5951   27.8115
   51  -90.0000    0.0000
   52  -85.5951  -27.8115
   53  -72.8115  -52.9007
   54  -52.9007  -72.8115
   55  -27.8115  -85.5951
   56    0.0000  -90.0000
   57   27.8115  -85.5951
   58   52.9007  -72.8115
   59   72.8115  -52.9007
   60   85.5951  -27.8115
   61  120.0000    0.0000
   62  114.1268   37.0820
   63   97.0820   70.5342
   64   70.5342   97.0820
   65   37.0820  114.1268
   66    0.0000  120.0000
   67  -37.0820  114.1268
   68  -70.5342   97.0820
   69  -97.0820   70.5342
   70 -114.1268   37.0820
   71 -120.0000    0.0000
   72 -114.1268  -37.0821
   73  -97.0820  -70.5342
   74  -70.5342  -97.0820
   75  -37.0820 -114.1268
   76    0.0000 -120.0000
   77   37.0821 -114.1268
   78   70.5342  -97.0820
   79   97.0821  -70.5342
   80  114.1268  -37.0820
   81  150.0000    0.0000
   82  142.6585   46.3526
   83  121.3525   88.1678
   84   88.1678  121.3526
   85   46.3525  142.6585
   86    0.0000  150.0000
   87  -46.3526  142.6585
   88  -88.1678  121.3525
   89 -121.3526   88.1678
   90 -142.6585   46.3525
   91 -150.0000    0.0000
   92 -142.6585  -46.3526
   93 -121.3525  -88.1678
   94  -88.1678 -121.3526
   95  -46.3525 -142.6585
   96    0.0000 -150.0000
   97   46.3526 -142.6585
   98   88.1678 -121.3525
   99  121.3526  -88.1678
  100  142.6585  -46.3525
  101  180.0000    0.0000
  102  171.1902   55.6231
  103  145.6231  105.8013
  104  105.8013  145.6231
  105   55.6231  171.1902
  106    0.0000  180.0000
  107  -55.6231  171.1902
  108 -105.8014  145.6230
  109 -145.6231  105.8013
  110 -171.1902   55.6230
  111 -180.0000    0.0000
  112 -171.1902  -55.6231
  113 -145.6230 -105.8014
  114 -105.8013 -145.6231
  115  -55.6230 -171.1902
  116    0.0000 -180.0000
  117   55.6231 -171.1902
  118  105.8014 -145.6230
  119  145.6231 -105.8013
  120  171.1902  -55.6230
  121  210.0000    0.0000
  122  199.7219   64.8936
  123  169.8936  123.4349
  124  123.4349  169.8936
  125   64.8936  199.7219
  126    0.0000  210.0000
  127  -64.8936  199.7219
  128 -123.4349  169.8936
  129 -169.8936  123.4349
  130 -199.7219   64.8936
  131 -210.0000    0.0000
  132 -199.7219  -64.8936
  133 -169.8936 -123.4349
  134 -123.4349 -169.8936
  135  -64.8935 -199.7219
  136    0.0000 -210.0000
  137   64.8936 -199.7219
  138  123.4349 -169.8936
  139  169.8936 -123.4349
  140  199.7219  -64.8935
  141  240.0000    0.0000
  142  228.2536   74.1641
  143  194.1641  141.0685
  144  141.0685  194.1641
  145   74.1641  228.2536
  146    0.0000  240.0000
  147  -74.1641  228.2536
  148 -141.0685  194.1641
  149 -194.1641  141.0685
  150 -228.2536   74.1641
  151 -240.0000    0.0000
  152 -228.2536  -74.1641
  153 -194.1641 -141.0685
  154 -141.0684 -194.1641
  155  -74.1640 -228.2536
  156    0.0000 -240.0000
  157   74.1641 -228.2536
  158  141.0685 -194.1641
  159  194.1641 -141.0684
  160  228.2536  -74.1640
  161  270.0000    0.0000
  162  256.7852   83.4346
  163  218.4346  158.7020
  164  158.7020  218.4346
  165   83.4346  256.7852
  166    0.0000  270.0000
  167  -83.4346  256.7852
  168 -158.7020  218.4346
  169 -218.4346  158.7020
  170 -256.7853   83.4346
  171 -270.0000    0.0000
  172 -256.7852  -83.4346
  173 -218.4346 -158.7020
  174 -158.7020 -218.4346
  175  -83.4346 -256.7853
  176    0.0000 -270.0000
  177   83.4346 -256.7852
  178  158.7021 -218.4346
  179  218.4346 -158.7020
  180  256.7853  -83.4345
  181  300.0000    0.0000
  182  285.3170   92.7051
  183  242.7051  176.3356
  184  176.3356  242.7051
  185   92.7051  285.3170
  186    0.0000  300.0000
  187  -92.7051  285.3170
  188 -176.3356  242.7051
  189 -242.7051  176.3356
  190 -285.3170   92.7051
  191 -300.0000    0.0000
  192 -285.3170  -92.7051
  193 -242.7051 -176.3356
  194 -176.3355 -242.7051
  195  -92.7051 -285.3170
  196    0.0000 -300.0000
  197   92.7051 -285.3170
  198  176.3356 -242.7051
  199  242.7051 -176.3355
  200  285.3170  -92.7050
  201    0.0000    0.0000
DEMAND_SECTION
    1     10
    2     30
    3     30
    4     10
    5     10
    6     30
    7     30
    8     10
    9     10
   10     30
   11     30
   12     10
   13     10
   14     30
   15     30
   16     10
   17     10
   18     30
   19     30
   20     10
   21     10
   22     30
   23     30
   24     10
   25     10
   26     30
   27     30
   28     10
   29     10
   30     30
   31     30
   32     10
   33     10
   34     30
   35     30
   36     10
   37     10
   38     30
   39     30
   40     10
   41     10
   42     30
   43     30
   44     10
   45     10
   46     30
   47     30
   48     10
   49     10
   50     30
   51     30
   52     10
   53     10
   54     30
   55     30
   56     10
   57     10
   58     30
   59     30
   60     10
   61     10
   62     30
   63     30
   64     10
   65     10
   66     30
   67     30
   68     10
   69     10
   70     30
   71     30
   72     10
   73     10
   74     30
   75     30
   76     10
   77     10
   78     30
   79     30
   80     10
   81     10
   82     30
   83     30
   84     10
   85     10
   86     30
   87     30
   88     10
   89     10
   90     30
   91     30
   92     10
   93     10
   94     30
   95     30
   96     10
   97     10
   98     30
   99     30
  100     10
  101     10
  102     30
  103     30
  104     10
  105     10
  106     30
  107     30
  108     10
  109     10
  110     30
  111     30
  112     10
  113     10
  114     30
  115     30
  116     10
  117     10
  118     30
  119     30
  120     10
  121     10
  122     30
  123     30
  124     10
  125     10
  126     30
  127     30
  128     10
  129     10
  130     30
  131     30
  132     10
  133     10
  134     30
  135     30
  136     10
  137     10
  138     30
  139     30
  140     10
  141     10
  142     30
  143     30
  144     10
  145     10
  146     30
  147     30
  148     10
  149     10
  150     30
  151     30
  152     10
  153     10
  154     30
  155     30
  156     10
  157     10
  158     30
  159     30
  160     10
  161     10
  162     30
  163     30
  164     10
  165     10
  166     30
  167     30
  168     10
  169     10
  170     30
  171     30
  172     10
  173     10
  174     30
  175     30
  176     10
  177     10
  178     30
  179     30
  180     10
  181     10
  182     30
  183     30
  184     10
  185     10
  186     30
  187     30
  188     10
  189     10
  190     30
  191     30
  192     10
  193     10
  194     30
  195     30
  196     10
  197     10
  198     30
  199     30
  200     10
  201      0
DEPOT_SECTION
  201
EOF
